     Program PWSCF v.7.2 starts on 19Jan2025 at 16:33:17

     Reading input from pw.in
Warning: card &CELL ignored
Warning: card / ignored
Warning: card &FCP ignored
Warning: card / ignored
Warning: card &RISM ignored
Warning: card / ignored

     Current dimensions of program PWSCF are:
     Max number of different atomic species (ntypx) = 10
     Max number of k-points (npk) =  40000
     Max angular momentum in pseudopotentials (lmaxx) =  4
     file Al.pbe-n-kjpaw_psl.1.0.0.UPF: wavefunction(s)  3S 3P renormalized
     file O.pbe-n-kjpaw_psl.1.0.0.UPF: wavefunction(s)  2S 2P renormalized

     gamma-point specific algorithms are used
     Message from routine setup:
     using ibrav=0 with symmetry is DISCOURAGED, use correct ibrav instead

     R & G space division:  proc/nbgrp/npool/nimage =      20
     Subspace diagonalization in iterative solution of the eigenvalue problem:
     a serial algorithm will be used

     Using Slab Decomposition

     bravais-lattice index     =            0
     lattice parameter (alat)  =      10.8235  a.u.
     unit-cell volume          =    4282.6914 (a.u.)^3
     number of atoms/cell      =           10
     number of atomic types    =            2
     number of electrons       =        36.00
     number of Kohn-Sham states=           22
     kinetic-energy cutoff     =      58.0000  Ry
     charge density cutoff     =     286.0000  Ry
     scf convergence threshold =      1.0E-08
     mixing beta               =       0.7000
     number of iterations used =            8  plain     mixing
     energy convergence thresh.=      1.0E-04
     force convergence thresh. =      1.0E-03
     Exchange-correlation= SLA  PW   PBX  PBC
                           (   1   4   3   4   0   0   0)
     nstep                     =           50

     celldm(1)=  10.823529  celldm(2)=   0.000000  celldm(3)=   0.000000
     celldm(4)=   0.000000  celldm(5)=   0.000000  celldm(6)=   0.000000

     crystal axes: (cart. coord. in units of alat)
               a(1) = (   1.000000   0.000000   0.000000 )
               a(2) = (   0.500000   0.866025   0.000000 )
               a(3) = (   0.000000   0.000000   3.900134 )

     reciprocal axes: (cart. coord. in units 2 pi/alat)
               b(1) = (  1.000000 -0.577350  0.000000 )
               b(2) = (  0.000000  1.154701  0.000000 )
               b(3) = (  0.000000  0.000000  0.256401 )

     PseudoPot. # 1 for Al read from file:
     /home/amendieta/pseudo/Al/Al.pbe-n-kjpaw_psl.1.0.0.UPF
     MD5 check sum: 502b6b27b9c6270cab5dd1084b96fa6d
     Pseudo is Projector augmented-wave + core cor, Zval =  3.0
     Generated using &quot;atomic&quot; code by A. Dal Corso  v.6.3
     Shape of augmentation charge: PSQ
     Using radial grid of 1135 points,  6 beta functions with:
                l(1) =   0
                l(2) =   0
                l(3) =   1
                l(4) =   1
                l(5) =   2
                l(6) =   2
     Q(r) pseudized with 0 coefficients

     PseudoPot. # 2 for O  read from file:
     /home/amendieta/pseudo/Al/O.pbe-n-kjpaw_psl.1.0.0.UPF
     MD5 check sum: e99d9cef9b487d1ca56f5b95ecd0fd7a
     Pseudo is Projector augmented-wave + core cor, Zval =  6.0
     Generated using &quot;atomic&quot; code by A. Dal Corso  v.6.3
     Shape of augmentation charge: PSQ
     Using radial grid of 1095 points,  4 beta functions with:
                l(1) =   0
                l(2) =   0
                l(3) =   1
                l(4) =   1
     Q(r) pseudized with 0 coefficients

     atomic species   valence    mass     pseudopotential
        Al             3.00    26.98154     Al( 1.00)
        O              6.00    15.99900     O ( 1.00)

      2 Sym. Ops. (no inversion) found

   Cartesian axes

     site n.     atom                  positions (alat units)
         1           Al  tau(   1) = (  -0.0000000   0.2886751   1.7459427  )
         2           Al  tau(   2) = (   0.5000000   0.2886751   1.7459427  )
         3           Al  tau(   3) = (   0.2500000   0.7216878   1.7459427  )
         4           Al  tau(   4) = (   0.7500000   0.7216878   1.7459427  )
         5           Al  tau(   5) = (   0.0000000   0.0000000   2.1541910  )
         6           Al  tau(   6) = (   0.5000000   0.0000000   2.1541910  )
         7           Al  tau(   7) = (   0.2500000   0.4330127   2.1541910  )
         8           Al  tau(   8) = (   0.7500000   0.4330127   2.1541910  )
         9           O   tau(   9) = (   0.0000000   0.0000000   2.4160824  )
        10           O   tau(  10) = (   0.2500000   0.1443376   2.4160824  )

     number of k points=     1  Methfessel-Paxton smearing, width (Ry)=  0.0200
                       cart. coord. in units 2pi/alat
        k(    1) = (   0.0000000   0.0000000   0.0000000), wk =   2.0000000

     Initial potential from superposition of free atoms

     starting charge      35.9817, renormalised to      36.0000

     negative rho (up, down):  8.026E-05 0.000E+00
     Starting wfcs are   40 randomized atomic wfcs
     Checking if some PAW data can be deallocated...

     Self-consistent Calculation

     iteration #  1     ecut=    58.00 Ry     beta= 0.70
     Davidson diagonalization with overlap
     ethr =  1.00E-02,  avg # of iterations =  4.0

     negative rho (up, down):  1.548E-06 0.000E+00

     total energy              =    -396.62198548 Ry
     estimated scf accuracy    <       3.08745172 Ry

[...]

     End of self-consistent calculation

          k = 0.0000 0.0000 0.0000 ( 15943 PWs)   bands (ev):

   -23.5050 -19.4533 -11.2920  -9.2254  -8.3141  -7.9200  -7.0945  -6.0157
    -5.9029  -5.2843  -5.2421  -5.1214  -5.0573  -4.6715  -4.5188  -3.4786
    -2.4191  -2.1605  -1.9951  -1.8225  -1.7170  -1.0141

     the Fermi energy is    -2.0750 ev

!    total energy              =    -398.99814028 Ry
     total all-electron energy =     -4185.834162 Ry
     estimated scf accuracy    <          8.1E-09 Ry
     smearing contrib. (-TS)   =      -0.00169740 Ry
     internal energy E=F+TS    =    -398.99644288 Ry

     The total energy is F=E-TS. E is the sum of the following terms:
     one-electron contribution =    -657.66671471 Ry
     hartree contribution      =     337.56948491 Ry
     xc contribution           =     -34.95812786 Ry
     ewald contribution        =     252.72930772 Ry
     one-center paw contrib.   =    -296.67039293 Ry

     convergence has been achieved in  36 iterations

[...]

     Forces acting on atoms (cartesian axes, Ry/au):

     atom    1 type  1   force =    -0.01906155    0.02082581    0.05378606
     atom    2 type  1   force =     0.01899461    0.01096654    0.04863734
     atom    3 type  1   force =    -0.01412905   -0.00815741    0.05175538
     atom    4 type  1   force =     0.00850490   -0.02692069    0.05378606
     atom    5 type  1   force =    -0.04413695   -0.02548248   -0.49347708
     atom    6 type  1   force =     0.01765265   -0.00815509   -0.00191544
     atom    7 type  1   force =     0.00176381    0.01936519   -0.00191544
     atom    8 type  1   force =    -0.00613563   -0.00354241   -0.02941280
     atom    9 type  2   force =    -0.06029140   -0.03480926    0.42122970
     atom   10 type  2   force =     0.09683861    0.05590980   -0.10247377
     The non-local contrib.  to forces
     atom    1 type  1   force =    -0.00571897   -0.02779269   -0.07461153
     atom    2 type  1   force =    -0.03711511   -0.02142842   -0.02756220
     atom    3 type  1   force =     0.00074169    0.00042821   -0.03138764
     atom    4 type  1   force =    -0.02692866    0.00894357   -0.07461153
     atom    5 type  1   force =     0.04085426    0.02358722   -0.45818097
     atom    6 type  1   force =    -0.03558766    0.02930826    0.08304884
     atom    7 type  1   force =     0.00758787   -0.04547395    0.08304884
     atom    8 type  1   force =     0.01703677    0.00983618   -0.01186825
     atom    9 type  2   force =     0.72497441    0.41856417   -1.20329835
     atom   10 type  2   force =    -0.52639744   -0.30391570   -1.14108408
     The ionic contribution  to forces
     atom    1 type  1   force =    -0.05171043    0.08956509   -6.44906896
     atom    2 type  1   force =     0.05171043    0.02985503   -6.38397510
     atom    3 type  1   force =    -0.05171043   -0.02985503   -6.38397510
     atom    4 type  1   force =     0.05171043   -0.08956509   -6.44906896
     atom    5 type  1   force =    -0.94037083   -0.54292335   -3.50805455
     atom    6 type  1   force =     0.94037083   -0.54292335    0.17360459
     atom    7 type  1   force =    -0.00000000    1.08584671    0.17360459
     atom    8 type  1   force =     0.00000000   -0.00000000    0.91859598
     atom    9 type  2   force =    -5.50454185   -3.17804872   14.87544616
     atom   10 type  2   force =     5.50454185    3.17804872   13.03289137
     The local contribution  to forces
     atom    1 type  1   force =     0.03788000   -0.04388541    6.56980150
     atom    2 type  1   force =     0.00072055    0.00039225    6.45741838
     atom    3 type  1   force =     0.03699008    0.02138242    6.46398255
     atom    4 type  1   force =    -0.01904795    0.05475600    6.56979290
     atom    5 type  1   force =     0.85914017    0.49603608    3.41601567
     atom    6 type  1   force =    -0.89039372    0.50819901   -0.24992880
     atom    7 type  1   force =    -0.00509680   -1.02521518   -0.24993007
     atom    8 type  1   force =    -0.02145331   -0.01239337   -0.93697107
     atom    9 type  2   force =     4.72667689    2.72901760  -13.25662697
     atom   10 type  2   force =    -4.88657261   -2.82126374  -12.00460170
     The core correction contribution to forces
     atom    1 type  1   force =     0.00048365    0.00293236    0.00771279
     atom    2 type  1   force =     0.00368851    0.00212885    0.00280070
     atom    3 type  1   force =    -0.00015982   -0.00009130    0.00318410
     atom    4 type  1   force =     0.00278179   -0.00104726    0.00771199
     atom    5 type  1   force =    -0.00376898   -0.00217558    0.05676391
     atom    6 type  1   force =     0.00327907   -0.00273473   -0.00860703
     atom    7 type  1   force =    -0.00072952    0.00420633   -0.00860749
     atom    8 type  1   force =    -0.00171631   -0.00099092    0.00086175
     atom    9 type  2   force =    -0.00743801   -0.00429354    0.00564697
     atom   10 type  2   force =     0.00530618    0.00306352    0.01029632
     The Hubbard contrib.    to forces
     atom    1 type  1   force =     0.00000000    0.00000000    0.00000000
     atom    2 type  1   force =     0.00000000    0.00000000    0.00000000
     atom    3 type  1   force =     0.00000000    0.00000000    0.00000000
     atom    4 type  1   force =     0.00000000    0.00000000    0.00000000
     atom    5 type  1   force =     0.00000000    0.00000000    0.00000000
     atom    6 type  1   force =     0.00000000    0.00000000    0.00000000
     atom    7 type  1   force =     0.00000000    0.00000000    0.00000000
     atom    8 type  1   force =     0.00000000    0.00000000    0.00000000
     atom    9 type  2   force =     0.00000000    0.00000000    0.00000000
     atom   10 type  2   force =     0.00000000    0.00000000    0.00000000
     The SCF correction term to forces
     atom    1 type  1   force =     0.00000285    0.00000467   -0.00003886
     atom    2 type  1   force =    -0.00000241    0.00001042   -0.00003961
     atom    3 type  1   force =     0.00000478   -0.00000932   -0.00004370
     atom    4 type  1   force =    -0.00000472   -0.00000546   -0.00003756
     atom    5 type  1   force =     0.00000802   -0.00000181   -0.00001631
     atom    6 type  1   force =    -0.00000788   -0.00000173   -0.00002551
     atom    7 type  1   force =    -0.00000018   -0.00000220   -0.00002920
     atom    8 type  1   force =    -0.00000019    0.00000553   -0.00002638
     atom    9 type  2   force =     0.00002521   -0.00002376    0.00006673
     atom   10 type  2   force =    -0.00003353   -0.00002876    0.00002916

     Total force =     0.682827     Total SCF correction =     0.000133

     BFGS Geometry Optimization
     Energy error            =      0.0E+00 Ry
     Gradient error          =      4.9E-01 Ry/Bohr

     number of scf cycles    =   1
     number of bfgs steps    =   0

     energy             new  =    -398.9981402832 Ry

     new trust radius        =       0.4961018594 bohr
     new conv_thr            =       0.0000000100 Ry

ATOMIC_POSITIONS (angstrom)
Al           -0.0100869388        1.6644261199       10.0284623564
Al            2.8738339782        1.6592088209       10.0257377708
Al            1.4244144586        4.1291972238       10.0273877687
Al            4.3001742969        4.1192681239       10.0284623564
Al           -0.0233562696       -0.0134847485       12.0771317659
Al            2.8731238452       -0.0043154886       12.3372549805
Al            1.4328245999        2.4903559825       12.3372549805
Al            4.2924268601        2.4782338032       12.3227040063
O            -0.0319048347       -0.0184202649       14.0611737481
O             1.4831360189        0.8562889798       13.7840418076

     Writing config-only to output data dir ./Al.save/
     NEW-OLD atomic charge density approx. for the potential

[...]

     Total force =     0.203116     Total SCF correction =     0.000043
     Energy error            =      1.1E-01 Ry
     Gradient error          =      1.2E-01 Ry/Bohr

[...]

     energy             old  =    -398.9981402832 Ry
     energy             new  =    -399.1124107063 Ry

     CASE: energy            _new < energy            _old

[...]

     iteration #  1     ecut=    58.00 Ry     beta= 0.70
     Davidson diagonalization with overlap
     c_bands:  3 eigenvalues not converged
     ethr =  1.00E-06,  avg # of iterations = 20.0

[...]

     WARNING: bfgs curvature condition failed, Theta= 0.813
     new trust radius        =       0.1339640448 bohr
     new conv_thr            =       0.0000000100 Ry

[...]

     iteration #  2     ecut=    58.00 Ry     beta= 0.70
     Davidson diagonalization with overlap
     ethr =  1.47E-05,  avg # of iterations =  3.0
     Minimization algorithm failed to find Fermi energy: reverting to bisection
     Possible cause: smearing is larger than the electronic band-gap.

[...]

     iteration #  1     ecut=    58.00 Ry     beta= 0.70
     Davidson diagonalization with overlap
     c_bands:  1 eigenvalues not converged
     ethr =  1.00E-06,  avg # of iterations = 20.0

[...]

     Threshold (ethr) on eigenvalues was too large:
     Diagonalizing with lowered threshold

     Davidson diagonalization with overlap
     ethr =  9.06E-08,  avg # of iterations =  6.0

[...]

     number of scf cycles    =  37
     number of bfgs steps    =  36

     energy             old  =    -399.7177397400 Ry
     energy             new  =    -399.7177504727 Ry

     CASE: energy            _new < energy            _old

     new trust radius        =       0.0049065493 bohr
     new conv_thr            =            1.0E-10 Ry

ATOMIC_POSITIONS (angstrom)
Al            0.1829450555        1.8691987990       10.2648432353
Al            2.9666644538        1.7128045210       10.2900477795
Al            1.4667378959        4.1536326718       10.1943105524
Al            4.5740286362        4.1840523951       10.2648432353
Al            0.1300976481        0.0751119121       12.1752558075
Al            3.0062762891        0.0809371297       12.5037068563
Al            1.5732317550        2.5630430723       12.5037068563
Al            4.4295798045        2.5574190926       12.3223029051
O            -1.1518107848       -0.6649982666       13.2716888251
O             1.4368352614        0.8295572250       13.2389054881

     Writing config-only to output data dir ./Al.save/
     NEW-OLD atomic charge density approx. for the potential

[...]

     Self-consistent Calculation

[...]

     Threshold (ethr) on eigenvalues was too large:
     Diagonalizing with lowered threshold

     Davidson diagonalization with overlap
     ethr =  2.92E-09,  avg # of iterations =  8.0

[...]

     total energy              =    -399.71775649 Ry
     estimated scf accuracy    <          1.8E-09 Ry

     iteration # 10     ecut=    58.00 Ry     beta= 0.70
     Davidson diagonalization with overlap
     ethr =  3.29E-12,  avg # of iterations =  5.0

[...]

     End of self-consistent calculation

          k = 0.0000 0.0000 0.0000 ( 15943 PWs)   bands (ev):

   -21.8872 -21.4810 -11.1255  -8.9368  -8.6846  -8.0409  -7.5476  -7.3893
    -7.0105  -6.5996  -5.1342  -5.0784  -4.8475  -4.7998  -4.4067  -3.6328
    -2.9102  -1.7823  -1.2623  -0.4127  -0.1521   0.5033

     the Fermi energy is    -1.5223 ev

!    total energy              =    -399.71775649 Ry
     total all-electron energy =     -4186.553778 Ry
     estimated scf accuracy    <          7.7E-11 Ry
     smearing contrib. (-TS)   =       0.00374095 Ry
     internal energy E=F+TS    =    -399.72149744 Ry

     The total energy is F=E-TS. E is the sum of the following terms:
     one-electron contribution =    -723.59717387 Ry
     hartree contribution      =     370.61190295 Ry
     xc contribution           =     -35.61078972 Ry
     ewald contribution        =     285.52729775 Ry
     one-center paw contrib.   =    -296.65273455 Ry

     convergence has been achieved in  10 iterations

     negative rho (up, down):  1.531E-04 0.000E+00

     Forces acting on atoms (cartesian axes, Ry/au):

     atom    1 type  1   force =     0.00017486    0.00036565   -0.00031473
     atom    2 type  1   force =    -0.00002775   -0.00001602    0.00001084
     atom    3 type  1   force =    -0.00042277   -0.00024409    0.00049440
     atom    4 type  1   force =     0.00040409   -0.00003139   -0.00031473
     atom    5 type  1   force =    -0.00035711   -0.00020618    0.00035156
     atom    6 type  1   force =     0.00021452   -0.00030261   -0.00003124
     atom    7 type  1   force =    -0.00015481    0.00033708   -0.00003124
     atom    8 type  1   force =     0.00002902    0.00001675    0.00025394
     atom    9 type  2   force =     0.00023541    0.00013592   -0.00071472
     atom   10 type  2   force =    -0.00009544   -0.00005511    0.00029590
     The non-local contrib.  to forces
     atom    1 type  1   force =    -0.03247859   -0.08230906   -0.16962391
     atom    2 type  1   force =    -0.01211095   -0.00699226   -0.04005702
     atom    3 type  1   force =     0.02221416    0.01282535   -0.13938809
     atom    4 type  1   force =    -0.08752103    0.01302724   -0.16962391
     atom    5 type  1   force =    -0.00150590   -0.00086943    0.07826853
     atom    6 type  1   force =     0.00827658    0.00140847    0.04952368
     atom    7 type  1   force =     0.00535806    0.00646349    0.04952368
     atom    8 type  1   force =    -0.00718830   -0.00415017    0.01185222
     atom    9 type  2   force =    -0.19962101   -0.11525125   -1.13694006
     atom   10 type  2   force =     0.18927952    0.10928058   -1.13368022
     The ionic contribution  to forces
     atom    1 type  1   force =    -0.17906636   -0.12551391   -6.74689711
     atom    2 type  1   force =     0.18771897    0.10837960   -6.61459753
     atom    3 type  1   force =     0.18145723    0.10476438   -7.04942252
     atom    4 type  1   force =    -0.19823141   -0.09231906   -6.74689711
     atom    5 type  1   force =    -0.03423502   -0.01976560   -1.42380207
     atom    6 type  1   force =     0.05645031   -0.00189654    0.93852114
     atom    7 type  1   force =     0.02658270    0.04983567    0.93852114
     atom    8 type  1   force =    -0.03011189   -0.01738511    1.68178084
     atom    9 type  2   force =    -0.13684555   -0.07900782   12.65818111
     atom   10 type  2   force =     0.12628102    0.07290838   12.36461211
     The local contribution  to forces
     atom    1 type  1   force =     0.20841264    0.19898382    6.89815351
     atom    2 type  1   force =    -0.17674799   -0.10204339    6.64987768
     atom    3 type  1   force =    -0.20109601   -0.11610460    7.17500175
     atom    4 type  1   force =     0.27652982    0.08099781    6.89815470
     atom    5 type  1   force =     0.03521393    0.02033051    1.34900115
     atom    6 type  1   force =    -0.06338762    0.00021866   -0.98492572
     atom    7 type  1   force =    -0.03150405   -0.05500475   -0.98492625
     atom    8 type  1   force =     0.03655038    0.02110265   -1.69052169
     atom    9 type  2   force =     0.33462747    0.19319523  -11.53059020
     atom   10 type  2   force =    -0.31380079   -0.18117308  -11.23937514
     The core correction contribution to forces
     atom    1 type  1   force =     0.00330853    0.00920566    0.01804927
     atom    2 type  1   force =     0.00111110    0.00064158    0.00478451
     atom    3 type  1   force =    -0.00299768   -0.00173075    0.01430071
     atom    4 type  1   force =     0.00962655   -0.00173758    0.01804939
     atom    5 type  1   force =     0.00017012    0.00009820   -0.00311862
     atom    6 type  1   force =    -0.00112452   -0.00003340   -0.00315286
     atom    7 type  1   force =    -0.00059116   -0.00095718   -0.00315285
     atom    8 type  1   force =     0.00077891    0.00044971   -0.00286062
     atom    9 type  2   force =     0.00207795    0.00119968    0.00862765
     atom   10 type  2   force =    -0.00185765   -0.00107253    0.00873204
     The Hubbard contrib.    to forces
     atom    1 type  1   force =     0.00000000    0.00000000    0.00000000
     atom    2 type  1   force =     0.00000000    0.00000000    0.00000000
     atom    3 type  1   force =     0.00000000    0.00000000    0.00000000
     atom    4 type  1   force =     0.00000000    0.00000000    0.00000000
     atom    5 type  1   force =     0.00000000    0.00000000    0.00000000
     atom    6 type  1   force =     0.00000000    0.00000000    0.00000000
     atom    7 type  1   force =     0.00000000    0.00000000    0.00000000
     atom    8 type  1   force =     0.00000000    0.00000000    0.00000000
     atom    9 type  2   force =     0.00000000    0.00000000    0.00000000
     atom   10 type  2   force =     0.00000000    0.00000000    0.00000000
     The SCF correction term to forces
     atom    1 type  1   force =    -0.00000083   -0.00000051    0.00000424
     atom    2 type  1   force =     0.00000081   -0.00000061    0.00000452
     atom    3 type  1   force =     0.00000002    0.00000110    0.00000389
     atom    4 type  1   force =    -0.00000003    0.00000012    0.00000416
     atom    5 type  1   force =    -0.00000003    0.00000019    0.00000389
     atom    6 type  1   force =    -0.00000002    0.00000014    0.00000389
     atom    7 type  1   force =    -0.00000006   -0.00000016    0.00000433
     atom    8 type  1   force =     0.00000008   -0.00000017    0.00000453
     atom    9 type  2   force =    -0.00000293   -0.00000037    0.00000811
     atom   10 type  2   force =     0.00000305    0.00000094    0.00000844

     Total force =     0.001527     Total SCF correction =     0.000017
     Energy error            =      6.0E-06 Ry
     Gradient error          =      7.1E-04 Ry/Bohr

     bfgs converged in  38 scf cycles and  37 bfgs steps
     (criteria: energy <  1.0E-04 Ry, force <  1.0E-03 Ry/Bohr)

     End of BFGS Geometry Optimization

     Final energy             =    -399.7177564904 Ry

     File ./Al.bfgs deleted, as requested
Begin final coordinates

ATOMIC_POSITIONS (angstrom)
Al            0.1829450555        1.8691987990       10.2648432353
Al            2.9666644538        1.7128045210       10.2900477795
Al            1.4667378959        4.1536326718       10.1943105524
Al            4.5740286362        4.1840523951       10.2648432353
Al            0.1300976481        0.0751119121       12.1752558075
Al            3.0062762891        0.0809371297       12.5037068563
Al            1.5732317550        2.5630430723       12.5037068563
Al            4.4295798045        2.5574190926       12.3223029051
O            -1.1518107848       -0.6649982666       13.2716888251
O             1.4368352614        0.8295572250       13.2389054881
End final coordinates

     Writing all to output data dir ./Al.save/

     General routines

     Parallel routines

   This run was terminated on:  16:37:53  19Jan2025

   JOB DONE.